g3 0 1 0	# problem lakes
 90 78 1 0 78	# vars, constraints, objectives, ranges, eqns
 18 1	# nonlinear constraints, objectives
 0 0	# network constraints: nonlinear, linear
 30 90 0	# nonlinear vars in constraints, objectives, both
 0 0 0 1	# linear network variables; functions; arith, flags
 0 0 0 0 0	# discrete variables: binary, integer, nonlinear (b,c,o)
 240 60	# nonzeros in Jacobian, gradients
 0 0	# max name lengths: constraints, variables
 0 0 0 0 0	# common exprs: b,c,o,c1,o1
b
3
2 0.0001
3
2 0.0001
2 0.0001
3
2 0.0001
3
2 0.0001
2 0.0001
3
2 0.0001
3
2 0.0001
2 0.0001
3
2 0.0001
3
2 0.0001
2 0.0001
3
2 0.0001
3
2 0.0001
2 0.0001
3
2 0.0001
3
2 0.0001
2 0.0001
3
3
3
3
3
3
3
3
3
3
3
3
3
3
3
3
3
3
3
3
3
3
3
3
3
3
3
3
3
3
3
3
3
3
3
3
3
3
3
3
3
3
3
3
3
3
3
3
3
3
3
3
3
3
3
3
3
3
3
3
x90
0 1
1 1
2 1
3 1
4 1
5 1
6 1
7 1
8 1
9 1
10 1
11 1
12 1
13 1
14 1
15 1
16 1
17 1
18 1
19 1
20 1
21 1
22 1
23 1
24 1
25 1
26 1
27 1
28 1
29 1
30 1
31 1
32 1
33 1
34 1
35 1
36 1
37 1
38 1
39 1
40 1
41 1
42 1
43 1
44 1
45 1
46 1
47 1
48 1
49 1
50 1
51 1
52 1
53 1
54 1
55 1
56 1
57 1
58 1
59 1
60 1
61 1
62 1
63 1
64 1
65 1
66 1
67 1
68 1
69 1
70 1
71 1
72 1
73 1
74 1
75 1
76 1
77 1
78 1
79 1
80 1
81 1
82 1
83 1
84 1
85 1
86 1
87 1
88 1
89 1
r
4 0
4 0
4 0
4 0
4 0
4 0
4 0
4 0
4 0
4 0
4 0
4 0
4 0
4 0
4 0
4 0
4 0
4 0
4 -22
4 -1
4 3
4 -27.2
4 51.5
4 44
4 162
4 8
4 12.5
4 53.5
4 -11
4 60
4 10
4 18
4 39
4 124
4 246
4 6
4 9.7
4 17.2
4 127
4 175
4 3
4 10
4 30.2
4 78
4 156
4 3
4 14
4 23.2
4 543.4
4 0
4 543.4
4 0
4 550.11
4 543.4
4 0
4 543.4
4 0
4 550.11
4 543.4
4 0
4 543.4
4 0
4 550.11
4 543.4
4 0
4 543.4
4 0
4 550.11
4 543.4
4 0
4 543.4
4 0
4 550.11
4 543.4
4 0
4 543.4
4 0
4 550.11
d78
0 1
1 1
2 1
3 1
4 1
5 1
6 1
7 1
8 1
9 1
10 1
11 1
12 1
13 1
14 1
15 1
16 1
17 1
18 1
19 1
20 1
21 1
22 1
23 1
24 1
25 1
26 1
27 1
28 1
29 1
30 1
31 1
32 1
33 1
34 1
35 1
36 1
37 1
38 1
39 1
40 1
41 1
42 1
43 1
44 1
45 1
46 1
47 1
48 1
49 1
50 1
51 1
52 1
53 1
54 1
55 1
56 1
57 1
58 1
59 1
60 1
61 1
62 1
63 1
64 1
65 1
66 1
67 1
68 1
69 1
70 1
71 1
72 1
73 1
74 1
75 1
76 1
77 1
C0
o2
o2
n0.0841168
o5
v0
n2
o39
v1
C1
o2
o2
n0.1280849
o5
v2
n2
o39
v3
C2
o2
n0.2605
o5
v4
n2.2
C3
o2
o2
n0.0841168
o5
v5
n2
o39
v6
C4
o2
o2
n0.1280849
o5
v7
n2
o39
v8
C5
o2
n0.2605
o5
v9
n2.2
C6
o2
o2
n0.0841168
o5
v10
n2
o39
v11
C7
o2
o2
n0.1280849
o5
v12
n2
o39
v13
C8
o2
n0.2605
o5
v14
n2.2
C9
o2
o2
n0.0841168
o5
v15
n2
o39
v16
C10
o2
o2
n0.1280849
o5
v17
n2
o39
v18
C11
o2
n0.2605
o5
v19
n2.2
C12
o2
o2
n0.0841168
o5
v20
n2
o39
v21
C13
o2
o2
n0.1280849
o5
v22
n2
o39
v23
C14
o2
n0.2605
o5
v24
n2.2
C15
o2
o2
n0.0841168
o5
v25
n2
o39
v26
C16
o2
o2
n0.1280849
o5
v27
n2
o39
v28
C17
o2
n0.2605
o5
v29
n2.2
C18
n0
C19
n0
C20
n0
C21
n0
C22
n0
C23
n0
C24
n0
C25
n0
C26
n0
C27
n0
C28
n0
C29
n0
C30
n0
C31
n0
C32
n0
C33
n0
C34
n0
C35
n0
C36
n0
C37
n0
C38
n0
C39
n0
C40
n0
C41
n0
C42
n0
C43
n0
C44
n0
C45
n0
C46
n0
C47
n0
C48
n0
C49
n0
C50
n0
C51
n0
C52
n0
C53
n0
C54
n0
C55
n0
C56
n0
C57
n0
C58
n0
C59
n0
C60
n0
C61
n0
C62
n0
C63
n0
C64
n0
C65
n0
C66
n0
C67
n0
C68
n0
C69
n0
C70
n0
C71
n0
C72
n0
C73
n0
C74
n0
C75
n0
C76
n0
C77
n0
O0 0
o54
60
o2
o0
n-202761.072
v30
o0
n-202761.072
v30
o2
o0
n-232.252
v31
o0
n-232.252
v31
o2
o0
n-277791.816
v32
o0
n-277791.816
v32
o2
o0
n-174.665
v33
o0
n-174.665
v33
o2
o0
n-2636.996
v34
o0
n-2636.996
v34
o2
o0
n-180.539
v35
o0
n-180.539
v35
o2
o0
n-59987.0235
v36
o0
n-59987.0235
v36
o2
o0
n-211.558
v37
o0
n-211.558
v37
o2
o0
n-19490.4
v38
o0
n-19490.4
v38
o2
o0
n-232.252
v39
o0
n-232.252
v39
o2
o0
n-202703.646
v40
o0
n-202703.646
v40
o2
o0
n-83.789
v41
o0
n-83.789
v41
o2
o0
n-277849.512
v42
o0
n-277849.512
v42
o2
o0
n-173.255
v43
o0
n-173.255
v43
o2
o0
n-2638.1
v44
o0
n-2638.1
v44
o2
o0
n-179.917
v45
o0
n-179.917
v45
o2
o0
n-59998.59
v46
o0
n-59998.59
v46
o2
o0
n-210.585
v47
o0
n-210.585
v47
o2
o0
n-19555.2
v48
o0
n-19555.2
v48
o2
o0
n-215.254
v49
o0
n-215.254
v49
o2
o0
n-202720.536
v50
o0
n-202720.536
v50
o2
o0
n-82.916
v51
o0
n-82.916
v51
o2
o0
n-277955.288
v52
o0
n-277955.288
v52
o2
o0
n-173.721
v53
o0
n-173.721
v53
o2
o0
n-2639.894
v54
o0
n-2639.894
v54
o2
o0
n-182.676
v55
o0
n-182.676
v55
o2
o0
n-60046.959
v56
o0
n-60046.959
v56
o2
o0
n-207.838
v57
o0
n-207.838
v57
o2
o0
n-19597.6
v58
o0
n-19597.6
v58
o2
o0
n-203.855
v59
o0
n-203.855
v59
o2
o0
n-202808.364
v60
o0
n-202808.364
v60
o2
o0
n-80.134
v61
o0
n-80.134
v61
o2
o0
n-278104.336
v62
o0
n-278104.336
v62
o2
o0
n-178.654
v63
o0
n-178.654
v63
o2
o0
n-2640.906
v64
o0
n-2640.906
v64
o2
o0
n-185.917
v65
o0
n-185.917
v65
o2
o0
n-60074.298
v66
o0
n-60074.298
v66
o2
o0
n-206.416
v67
o0
n-206.416
v67
o2
o0
n-19652.8
v68
o0
n-19652.8
v68
o2
o0
n-186.308
v69
o0
n-186.308
v69
o2
o0
n-202916.46
v70
o0
n-202916.46
v70
o2
o0
n-65.345
v71
o0
n-65.345
v71
o2
o0
n-278224.536
v72
o0
n-278224.536
v72
o2
o0
n-188.01
v73
o0
n-188.01
v73
o2
o0
n-2641.458
v74
o0
n-2641.458
v74
o2
o0
n-192.568
v75
o0
n-192.568
v75
o2
o0
n-60091.122
v76
o0
n-60091.122
v76
o2
o0
n-204.3
v77
o0
n-204.3
v77
o2
o0
n-19708.8
v78
o0
n-19708.8
v78
o2
o0
n-201.1
v79
o0
n-201.1
v79
o2
o0
n-202953.618
v80
o0
n-202953.618
v80
o2
o0
n-72.005
v81
o0
n-72.005
v81
o2
o0
n-278277.424
v82
o0
n-278277.424
v82
o2
o0
n-193.833
v83
o0
n-193.833
v83
o2
o0
n-2641.458
v84
o0
n-2641.458
v84
o2
o0
n-196.651
v85
o0
n-196.651
v85
o2
o0
n-60082.71
v86
o0
n-60082.71
v86
o2
o0
n-204.25
v87
o0
n-204.25
v87
o2
o0
n-19706.4
v88
o0
n-19706.4
v88
o2
o0
n-241.079
v89
o0
n-241.079
v89
k89
2
4
6
8
10
12
14
16
18
20
22
24
26
28
30
32
34
36
38
40
42
44
46
48
50
52
54
56
58
60
62
64
68
71
77
80
84
87
89
90
92
94
98
101
107
110
114
117
119
120
122
124
128
131
137
140
144
147
149
150
152
154
158
161
167
170
174
177
179
180
182
184
188
191
197
200
204
207
209
210
212
214
218
221
227
230
234
237
239
J0 3
0 0
1 0
33 -1
J1 3
2 0
3 0
35 -1
J2 2
4 0
37 -1
J3 3
5 0
6 0
43 -1
J4 3
7 0
8 0
45 -1
J5 2
9 0
47 -1
J6 3
10 0
11 0
53 -1
J7 3
12 0
13 0
55 -1
J8 2
14 0
57 -1
J9 3
15 0
16 0
63 -1
J10 3
17 0
18 0
65 -1
J11 2
19 0
67 -1
J12 3
20 0
21 0
73 -1
J13 3
22 0
23 0
75 -1
J14 2
24 0
77 -1
J15 3
25 0
26 0
83 -1
J16 3
27 0
28 0
85 -1
J17 2
29 0
87 -1
J18 3
30 -1
31 1
40 1
J19 4
31 -1
32 -1
33 1
42 1
J20 4
33 -1
34 -1
35 1
44 1
J21 4
35 -1
36 -1
37 1
46 1
J22 4
37 -1
38 -1
39 1
48 1
J23 3
40 -1
41 1
50 1
J24 4
41 -1
42 -1
43 1
52 1
J25 4
43 -1
44 -1
45 1
54 1
J26 4
45 -1
46 -1
47 1
56 1
J27 4
47 -1
48 -1
49 1
58 1
J28 3
50 -1
51 1
60 1
J29 4
51 -1
52 -1
53 1
62 1
J30 4
53 -1
54 -1
55 1
64 1
J31 4
55 -1
56 -1
57 1
66 1
J32 4
57 -1
58 -1
59 1
68 1
J33 3
60 -1
61 1
70 1
J34 4
61 -1
62 -1
63 1
72 1
J35 4
63 -1
64 -1
65 1
74 1
J36 4
65 -1
66 -1
67 1
76 1
J37 4
67 -1
68 -1
69 1
78 1
J38 3
70 -1
71 1
80 1
J39 4
71 -1
72 -1
73 1
82 1
J40 4
73 -1
74 -1
75 1
84 1
J41 4
75 -1
76 -1
77 1
86 1
J42 4
77 -1
78 -1
79 1
88 1
J43 3
30 1
80 -1
81 1
J44 4
32 1
81 -1
82 -1
83 1
J45 4
34 1
83 -1
84 -1
85 1
J46 4
36 1
85 -1
86 -1
87 1
J47 4
38 1
87 -1
88 -1
89 1
J48 3
0 -1
32 0.0010399334442595673
34 0.10869565217391305
J49 3
1 -1
32 0.0020798668885191347
34 -0.2173913043478261
J50 2
2 -1
34 0.2173913043478261
J51 3
3 -1
34 0.2173913043478261
36 -0.009510223490252021
J52 2
4 -1
36 0.009510223490252021
J53 3
5 -1
42 0.0010399334442595673
44 0.10869565217391305
J54 3
6 -1
42 0.0020798668885191347
44 -0.2173913043478261
J55 2
7 -1
44 0.2173913043478261
J56 3
8 -1
44 0.2173913043478261
46 -0.009510223490252021
J57 2
9 -1
46 0.009510223490252021
J58 3
10 -1
52 0.0010399334442595673
54 0.10869565217391305
J59 3
11 -1
52 0.0020798668885191347
54 -0.2173913043478261
J60 2
12 -1
54 0.2173913043478261
J61 3
13 -1
54 0.2173913043478261
56 -0.009510223490252021
J62 2
14 -1
56 0.009510223490252021
J63 3
15 -1
62 0.0010399334442595673
64 0.10869565217391305
J64 3
16 -1
62 0.0020798668885191347
64 -0.2173913043478261
J65 2
17 -1
64 0.2173913043478261
J66 3
18 -1
64 0.2173913043478261
66 -0.009510223490252021
J67 2
19 -1
66 0.009510223490252021
J68 3
20 -1
72 0.0010399334442595673
74 0.10869565217391305
J69 3
21 -1
72 0.0020798668885191347
74 -0.2173913043478261
J70 2
22 -1
74 0.2173913043478261
J71 3
23 -1
74 0.2173913043478261
76 -0.009510223490252021
J72 2
24 -1
76 0.009510223490252021
J73 3
25 -1
82 0.0010399334442595673
84 0.10869565217391305
J74 3
26 -1
82 0.0020798668885191347
84 -0.2173913043478261
J75 2
27 -1
84 0.2173913043478261
J76 3
28 -1
84 0.2173913043478261
86 -0.009510223490252021
J77 2
29 -1
86 0.009510223490252021
G0 60
30 0
31 0
32 0
33 0
34 0
35 0
36 0
37 0
38 0
39 0
40 0
41 0
42 0
43 0
44 0
45 0
46 0
47 0
48 0
49 0
50 0
51 0
52 0
53 0
54 0
55 0
56 0
57 0
58 0
59 0
60 0
61 0
62 0
63 0
64 0
65 0
66 0
67 0
68 0
69 0
70 0
71 0
72 0
73 0
74 0
75 0
76 0
77 0
78 0
79 0
80 0
81 0
82 0
83 0
84 0
85 0
86 0
87 0
88 0
89 0
